column=9;
row=9;
left=[0, 0, 0, 0, 3, 4, 1, 2, 0];
right=[4, 0, 3, 2, 0, 0, 0, 0, 1];
top=[3, 0, 0, 4, 3, 3, 0, 3, 0];
bottom=[0, 2, 0, 2, 3, 0, 0, 0, 0];
Board=[|5,0,0,0,2,0,0,0,0|4,0,7,0,3,0,0,0,2|0,0,8,5,9,0,0,3,0|0,4,6,2,1,5,0,0,0|1,0,0,0,0,0,5,0,0|0,0,0,8,0,0,0,0,4|9,5,2,4,0,0,6,0,3|6,0,0,0,8,2,0,0,5|7,8,4,0,5,6,2,0,0|]